 200 100 
 48 72 60 100 96 14 50 59 23 97 97 47 
 61 57 41 75 83 56 78 12 45 68 83 54 
 64 69 92 87 44 29 21 40 97 55 64 1 
 13 78 40 59 94 40 61 70 37 93 43 54 
 9 50 69 94 26 58 33 53 72 98 20 24 
 49 69 86 74 93 11 27 8 11 55 18 6 
 24 85 73 88 42 82 3 49 78 57 56 69 
 34 64 30 65 32 38 1 33 61 70 47 77 
 96 46 50 2 
 41 
 1 3 5 6 9 12 13 15 17 19 20 22 
 25 26 27 30 39 40 43 44 45 46 49 50 
 51 52 54 57 60 63 67 70 81 82 83 86 
 87 89 96 98 99 
 83 
 1 2 3 4 5 6 7 8 9 10 11 12 
 14 16 17 18 20 21 22 23 24 27 32 33 
 34 35 36 37 38 39 40 41 42 43 44 45 
 46 47 48 49 50 51 52 53 54 55 56 57 
 58 59 61 62 64 65 66 69 70 71 72 73 
 74 75 76 77 78 79 80 81 82 84 85 86 
 88 89 90 92 93 94 95 96 97 99 100 
 57 
 2 3 5 7 8 9 11 13 14 15 17 20 
 21 22 23 25 26 28 30 31 32 33 34 36 
 37 41 42 43 44 45 47 48 49 50 52 53 
 56 60 65 69 71 72 73 75 77 78 79 80 
 84 85 86 87 89 92 93 96 100 
 69 
 1 6 7 10 11 12 13 14 17 18 20 22 
 23 25 26 28 29 30 31 32 34 36 37 38 
 39 41 43 44 45 46 48 50 51 53 56 58 
 59 60 62 63 64 66 67 68 70 71 72 73 
 74 75 76 77 79 80 81 83 84 85 86 87 
 89 91 93 94 95 96 97 98 100 
 99 
 1 2 3 4 5 6 7 8 9 10 11 12 
 13 14 15 16 17 18 19 20 21 22 23 24 
 25 26 27 28 29 30 31 32 33 34 35 36 
 37 38 39 40 42 43 44 45 46 47 48 49 
 50 51 52 53 54 55 56 57 58 59 60 61 
 62 63 64 65 66 67 68 69 70 71 72 73 
 74 75 76 77 78 79 80 81 82 83 84 85 
 86 87 88 89 90 91 92 93 94 95 96 97 
 98 99 100 
 23 
 3 18 20 22 25 28 30 31 46 47 49 55 
 56 60 61 63 70 71 73 75 76 87 91 
 75 
 1 3 4 5 8 9 10 11 12 13 15 16 
 17 18 19 20 21 25 26 27 28 29 30 31 
 32 33 34 35 36 37 39 41 43 44 45 46 
 47 49 50 52 53 54 56 58 59 61 63 64 
 65 66 67 68 69 71 72 73 74 75 78 79 
 80 81 82 83 84 85 86 87 88 89 92 93 
 94 96 99 
 45 
 2 5 6 9 12 14 15 16 18 20 28 29 
 31 32 33 34 35 36 38 39 40 43 47 54 
 55 58 59 61 62 63 66 68 70 73 74 75 
 77 78 82 90 91 93 94 96 100 
 38 
 3 5 11 13 14 16 18 26 29 30 32 39 
 40 43 51 52 53 55 56 58 60 61 63 66 
 69 73 77 78 80 87 89 91 92 94 95 96 
 97 99 
 86 
 2 4 5 6 7 8 9 10 11 12 13 14 
 15 16 17 18 19 20 21 23 24 25 26 27 
 28 29 31 32 34 35 37 39 40 41 42 43 
 44 45 46 47 48 49 50 52 53 54 56 58 
 59 60 61 63 64 65 66 67 68 69 70 72 
 73 74 75 77 79 80 81 82 83 84 85 86 
 87 88 89 90 91 92 93 94 95 96 97 98 
 99 100 
 74 
 1 2 3 4 5 7 8 10 11 12 15 16 
 17 18 19 21 22 23 27 28 31 32 33 34 
 35 40 41 42 45 46 48 49 50 51 52 54 
 55 56 57 59 60 61 63 64 65 66 67 68 
 69 70 71 73 74 75 76 78 79 80 81 82 
 83 84 85 86 87 88 89 91 92 93 94 95 
 97 100 
 62 
 2 4 6 9 10 14 15 17 18 19 21 23 
 25 28 29 35 36 39 40 43 45 46 47 48 
 49 51 53 54 55 57 58 59 60 61 63 67 
 68 69 70 71 72 73 74 76 77 78 79 80 
 81 83 84 85 87 88 89 90 91 93 94 96 
 97 99 
 50 
 2 3 4 7 11 14 17 20 24 27 28 30 
 31 33 34 35 38 40 42 43 44 45 47 48 
 49 54 55 57 58 59 60 63 65 66 68 71 
 72 73 74 76 77 80 87 88 90 91 94 95 
 97 100 
 87 
 1 2 3 5 6 7 8 9 10 11 12 13 
 14 16 17 18 19 20 21 22 23 25 26 27 
 28 29 30 31 32 33 34 36 37 38 39 40 
 41 42 43 45 46 47 48 49 52 53 54 55 
 56 57 58 59 61 62 63 64 65 66 68 69 
 70 71 72 73 74 75 76 77 78 81 82 84 
 85 86 87 88 89 90 91 92 93 94 95 96 
 98 99 100 
 70 
 1 2 4 5 6 7 8 9 11 12 13 14 
 18 19 20 21 24 25 26 27 28 29 31 33 
 34 36 37 38 39 40 41 42 43 45 46 47 
 53 54 55 57 58 60 61 63 66 68 71 72 
 73 75 76 77 78 81 82 84 85 88 89 90 
 91 92 93 94 95 96 97 98 99 100 
 29 
 3 4 16 21 26 28 29 30 32 33 34 36 
 41 45 52 53 60 70 72 73 75 77 81 84 
 87 91 94 97 98 
 44 
 4 5 6 8 11 12 13 15 21 27 28 29 
 30 31 35 36 41 47 48 50 52 57 59 64 
 66 68 70 72 74 75 79 80 81 82 85 86 
 89 90 92 93 94 95 98 100 
 38 
 1 5 6 7 8 15 18 21 22 25 27 29 
 36 39 40 45 46 49 50 51 52 53 54 57 
 62 68 70 72 75 80 82 84 85 91 92 93 
 94 98 
 6 
 22 35 44 61 80 97 
 26 
 4 5 7 10 11 12 25 42 44 46 47 50 
 54 55 58 60 61 66 68 77 79 80 81 89 
 91 94 
 52 
 1 3 6 10 11 14 16 17 18 20 23 24 
 29 30 32 34 36 38 39 41 42 43 44 47 
 48 49 51 52 53 55 57 58 59 60 61 62 
 63 64 66 68 69 71 74 77 84 87 88 90 
 93 96 97 98 
 87 
 1 2 3 4 5 6 9 10 11 12 13 14 
 15 16 17 18 19 20 21 22 23 24 25 27 
 29 30 31 32 33 35 36 38 39 41 42 43 
 44 45 46 47 48 49 51 52 53 54 55 56 
 57 58 59 60 61 62 63 66 67 69 70 71 
 72 73 74 75 76 77 78 79 81 82 83 84 
 85 86 88 89 90 91 92 93 94 95 96 97 
 98 99 100 
 87 
 1 4 5 6 7 8 9 10 11 12 13 14 
 15 16 17 18 19 20 21 22 23 24 25 26 
 27 29 30 31 32 33 34 35 36 37 38 39 
 40 41 42 43 44 45 46 47 48 50 53 54 
 55 56 57 58 59 60 61 62 63 65 66 67 
 68 70 71 72 73 74 75 76 77 79 81 82 
 83 84 86 87 89 90 91 92 93 95 96 97 
 98 99 100 
 40 
 1 2 4 6 8 9 12 20 22 26 31 32 
 33 34 35 36 37 38 39 40 43 44 47 56 
 61 62 64 69 70 71 74 79 80 81 84 85 
 87 90 95 100 
 20 
 6 10 14 17 20 23 24 40 54 56 60 62 
 65 69 76 79 89 90 97 100 
 49 
 5 6 7 13 14 15 19 20 21 25 27 32 
 33 35 36 40 41 42 43 44 46 47 48 49 
 52 53 54 58 61 65 68 71 74 75 76 78 
 80 82 86 87 88 89 90 91 93 94 96 97 
 100 
 14 
 7 11 12 37 38 45 47 50 62 64 70 76 
 96 97 
 50 
 1 4 6 7 13 16 17 19 20 22 24 25 
 26 27 28 31 32 35 36 39 41 42 43 44 
 47 49 51 53 54 55 59 61 62 66 67 69 
 71 73 74 77 79 80 81 83 85 89 92 97 
 98 100 
 59 
 1 2 4 7 8 10 13 14 15 17 19 22 
 24 25 26 29 31 32 33 35 36 39 41 42 
 43 46 47 50 51 52 54 56 59 60 61 63 
 64 66 68 69 70 71 72 73 74 75 76 77 
 78 80 81 85 88 89 90 93 95 98 99 
 81 
 1 3 4 5 6 7 9 10 12 13 14 15 
 16 17 18 20 21 22 24 26 27 29 30 31 
 32 33 34 35 37 39 40 41 42 43 45 47 
 48 49 50 52 53 54 55 56 57 58 60 61 
 62 63 64 65 66 68 69 70 71 72 73 74 
 75 77 78 79 80 81 82 83 85 86 87 88 
 89 90 91 92 94 97 98 99 100 
 78 
 2 3 5 6 7 8 9 10 12 14 15 16 
 17 18 19 20 21 22 23 24 25 27 30 33 
 36 37 38 39 40 41 42 43 44 45 46 47 
 48 49 50 51 52 53 54 57 58 59 60 62 
 63 64 65 66 67 69 70 72 74 75 76 77 
 78 79 80 82 83 84 85 86 87 88 89 90 
 93 94 96 97 98 99 
 48 
 2 6 7 11 13 15 18 20 21 29 30 33 
 37 39 40 42 43 44 46 47 48 49 51 52 
 53 54 55 56 58 60 61 63 69 72 73 74 
 75 77 78 81 83 84 90 91 92 94 95 97 
 66 
 1 2 3 4 5 7 8 9 10 11 12 13 
 14 15 16 18 20 23 24 28 30 31 32 33 
 34 38 39 40 41 42 44 46 47 48 49 50 
 52 53 54 55 56 57 58 59 61 63 66 67 
 68 70 71 73 76 77 80 83 84 86 88 90 
 91 92 93 94 96 97 
 23 
 10 11 14 20 23 24 27 34 35 39 42 45 
 50 57 60 75 80 81 84 85 90 94 95 
 45 
 1 4 6 9 13 14 15 18 22 23 24 27 
 28 30 31 33 35 38 39 41 45 46 48 52 
 56 57 58 59 60 62 65 68 69 74 75 78 
 82 84 86 89 90 91 92 95 98 
 31 
 1 3 10 12 18 19 24 29 31 34 38 42 
 43 44 49 52 56 60 64 68 69 72 79 81 
 83 85 86 88 90 95 96 
 15 
 17 20 24 27 37 39 42 48 55 58 62 69 
 83 85 98 
 67 
 2 4 5 6 7 8 9 10 12 13 14 15 
 16 19 21 23 24 26 27 30 31 32 33 36 
 37 38 40 41 44 45 47 48 49 50 51 52 
 53 54 55 56 57 58 59 60 61 67 68 69 
 70 71 76 78 79 80 82 83 85 87 88 91 
 92 94 95 96 97 98 99 
 80 
 1 2 3 4 5 6 7 8 10 11 12 13 
 14 15 16 17 18 19 21 22 24 25 26 27 
 28 29 30 31 32 33 34 35 36 37 38 39 
 40 41 42 44 46 48 49 51 52 53 54 55 
 58 59 60 61 62 63 64 66 67 68 70 74 
 75 76 77 78 79 80 81 82 83 84 88 89 
 90 92 94 96 97 98 99 100 
 66 
 1 3 4 5 8 9 10 11 12 14 15 16 
 17 19 20 21 22 23 25 28 29 30 31 32 
 33 34 35 38 39 40 41 44 46 48 50 51 
 54 55 56 58 59 60 62 63 66 67 68 69 
 70 71 72 74 76 77 78 79 83 84 85 86 
 88 90 93 94 95 97 
 21 
 1 2 5 8 9 10 14 16 20 29 34 40 
 48 51 70 80 82 83 84 87 98 
 82 
 2 3 4 5 7 8 9 11 12 13 14 15 
 17 18 19 20 22 23 24 25 26 27 28 29 
 30 31 32 34 35 37 38 39 41 42 43 44 
 46 47 48 49 50 51 52 53 55 56 57 58 
 59 60 61 62 63 64 65 66 67 68 69 70 
 72 74 75 76 77 78 79 80 81 82 83 85 
 87 88 89 91 92 93 95 98 99 100 
 83 
 1 2 3 4 6 7 9 10 13 14 16 17 
 18 19 20 21 22 23 24 25 26 27 28 29 
 31 32 33 34 35 37 38 41 42 43 44 45 
 46 47 48 49 50 51 52 53 54 55 56 57 
 58 59 60 61 62 63 65 67 69 70 71 72 
 74 76 77 80 81 82 83 84 85 86 87 88 
 89 90 91 92 93 94 95 96 97 98 99 
 46 
 1 2 3 4 6 8 9 11 14 16 17 18 
 19 21 22 23 27 28 30 31 32 34 35 37 
 39 46 47 48 53 54 64 65 66 70 73 74 
 75 76 79 80 82 84 92 96 97 99 
 23 
 6 13 21 24 26 28 34 38 43 46 57 58 
 66 67 74 76 84 89 91 93 95 98 99 
 37 
 1 4 5 6 11 12 14 15 16 19 21 24 
 25 26 28 31 33 34 40 41 52 55 59 60 
 63 64 65 71 73 75 76 78 83 84 92 93 
 97 
 52 
 1 3 5 6 10 14 15 16 17 19 22 23 
 25 26 27 28 33 35 36 37 38 39 44 46 
 47 48 49 50 55 56 61 62 70 71 72 74 
 76 77 78 79 80 81 83 84 87 89 92 94 
 95 97 99 100 
 97 
 1 2 3 4 5 6 7 8 9 10 11 12 
 13 14 15 16 17 18 19 20 21 22 23 24 
 25 26 27 28 29 30 31 32 33 34 35 37 
 38 39 40 41 42 43 44 45 46 47 48 49 
 50 51 52 53 54 55 56 57 58 59 60 61 
 62 63 64 65 66 67 68 69 70 71 72 73 
 74 76 77 78 79 80 81 82 83 84 85 86 
 87 88 89 90 91 92 93 94 96 97 98 99 
 100 
 67 
 1 2 3 5 6 7 8 9 10 11 14 17 
 18 19 20 21 22 23 26 27 29 30 33 34 
 37 39 40 41 42 43 45 46 49 50 51 52 
 53 54 55 58 62 63 64 65 66 68 69 70 
 71 72 73 74 78 81 82 83 84 86 89 91 
 92 93 94 96 97 98 99 
 47 
 1 3 4 5 7 8 10 14 16 18 20 22 
 24 25 27 31 32 33 34 36 37 42 43 45 
 47 48 55 56 59 61 63 67 77 78 79 80 
 81 82 85 86 87 91 93 94 97 98 99 
 66 
 1 5 6 7 8 9 14 15 18 20 21 23 
 26 29 30 31 32 35 36 37 38 40 42 43 
 44 45 46 47 48 49 51 52 53 54 55 57 
 58 59 61 62 63 64 66 67 70 72 74 75 
 76 79 80 81 86 87 88 89 90 92 93 94 
 95 96 97 98 99 100 
 26 
 1 2 3 5 7 19 23 24 27 29 38 42 
 45 47 50 56 60 61 62 65 66 71 75 87 
 88 100 
 57 
 3 4 5 7 9 11 13 14 15 18 20 23 
 24 26 28 29 30 31 32 35 36 37 38 39 
 40 41 42 44 46 48 50 52 54 55 57 60 
 61 62 66 69 72 73 74 76 78 79 80 82 
 83 84 85 87 88 89 97 98 100 
 12 
 12 20 25 34 36 38 64 66 70 73 83 85 
 27 
 1 4 13 15 18 23 29 36 38 42 48 51 
 56 60 64 67 72 77 79 80 84 87 89 91 
 92 94 99 
 77 
 1 2 3 4 6 7 10 11 12 13 14 15 
 16 17 18 19 20 21 22 23 26 28 29 30 
 32 33 34 37 38 40 41 42 44 47 48 49 
 50 51 52 54 55 56 57 59 60 61 63 64 
 65 69 70 72 73 74 75 76 78 79 80 81 
 82 83 84 85 87 88 90 91 92 93 94 95 
 96 97 98 99 100 
 10 
 5 12 25 33 45 54 60 77 95 100 
 22 
 4 5 6 17 21 24 27 29 34 37 48 50 
 53 67 68 73 75 79 80 86 92 95 
 94 
 1 2 3 4 5 6 8 9 10 11 12 14 
 15 16 17 18 19 21 22 23 24 25 26 27 
 28 29 30 31 32 33 34 35 36 37 38 39 
 40 41 42 43 44 45 46 47 48 49 50 51 
 52 53 54 55 56 57 58 59 60 61 63 64 
 65 66 67 68 69 70 71 72 73 74 75 76 
 77 78 79 80 81 82 83 86 87 88 89 90 
 91 92 93 94 95 96 97 98 99 100 
 85 
 1 3 5 6 8 10 12 13 14 15 16 19 
 20 22 23 24 26 27 29 30 31 32 33 34 
 35 36 37 38 39 40 41 42 43 44 45 47 
 48 49 50 51 52 53 54 55 56 57 58 60 
 62 63 64 65 66 67 68 69 70 71 72 73 
 74 75 76 77 78 79 80 81 82 83 84 85 
 86 87 88 89 90 91 94 95 96 97 98 99 
 100 
 46 
 1 2 5 6 7 11 12 13 14 15 16 17 
 19 22 23 29 30 31 32 34 35 36 37 40 
 41 42 43 45 46 48 57 59 60 62 63 64 
 65 67 76 77 78 87 88 91 92 96 
 80 
 1 3 4 5 6 7 9 10 11 12 13 14 
 16 20 21 23 24 25 26 27 28 29 30 31 
 32 35 36 39 40 41 43 44 46 48 49 50 
 51 52 53 54 55 57 58 59 60 61 63 64 
 65 66 67 68 69 70 72 73 74 75 76 77 
 78 79 80 81 82 84 85 86 87 88 89 90 
 91 93 94 95 96 97 98 99 
 64 
 1 3 5 6 8 10 11 12 13 14 15 16 
 20 24 26 28 29 31 32 33 34 35 37 38 
 39 41 44 45 46 48 49 50 52 53 54 55 
 56 57 58 59 60 61 64 65 66 69 70 71 
 73 74 76 77 79 84 85 86 88 89 90 95 
 96 97 98 99 
 62 
 2 5 6 7 8 9 10 12 14 15 18 19 
 20 22 23 24 25 26 27 28 29 30 31 32 
 33 34 35 36 42 43 44 46 53 56 57 58 
 59 60 61 63 66 67 69 71 74 75 76 77 
 78 80 81 83 86 88 89 90 91 92 95 97 
 98 100 
 56 
 1 3 4 7 9 10 12 13 14 15 16 17 
 22 23 24 26 27 30 32 33 39 41 43 44 
 45 46 47 48 50 52 53 54 57 58 60 61 
 63 65 66 68 71 72 73 75 76 79 81 82 
 86 87 88 89 92 97 98 100 
 5 
 11 13 32 47 92 
 43 
 2 3 5 7 10 11 12 13 23 24 28 30 
 31 32 34 35 37 38 39 40 41 43 45 50 
 55 56 58 60 62 63 66 67 69 71 79 80 
 84 85 89 91 95 96 98 
 53 
 1 2 3 4 5 9 12 14 15 17 18 23 
 24 26 27 29 30 33 35 36 37 39 40 41 
 42 43 46 47 48 49 50 51 54 56 57 59 
 60 61 63 66 67 73 83 84 85 86 89 90 
 91 92 93 94 96 
 62 
 1 4 5 6 8 10 12 14 15 16 17 18 
 21 23 24 25 27 28 29 30 32 36 38 39 
 41 44 45 46 47 49 50 51 52 54 55 56 
 57 58 59 63 66 68 69 70 71 74 75 76 
 79 80 83 86 87 89 90 92 93 95 96 98 
 99 100 
 24 
 3 8 10 12 17 18 26 29 32 35 38 42 
 43 47 53 55 57 61 65 70 74 86 89 97 
 70 
 1 2 3 4 5 6 7 8 10 11 12 13 
 14 15 16 17 19 21 22 23 24 25 26 27 
 28 32 34 36 37 38 40 41 42 43 44 46 
 47 49 50 51 52 53 54 55 56 58 61 62 
 63 64 65 66 67 68 69 73 77 79 80 81 
 82 86 87 88 90 91 93 94 97 100 
 25 
 7 13 14 21 24 29 39 40 53 55 58 65 
 66 67 69 70 77 78 83 84 86 89 92 94 
 100 
 77 
 1 2 3 4 5 6 7 8 9 10 11 12 
 13 14 15 16 17 18 19 20 21 23 24 26 
 27 30 31 32 33 34 36 37 38 39 40 41 
 42 43 44 45 46 47 49 50 51 52 55 57 
 58 59 60 61 63 64 65 66 68 69 70 71 
 72 73 74 76 77 79 80 81 82 84 88 90 
 93 94 95 98 100 
 8 
 5 20 25 31 57 71 75 78 
 75 
 1 3 4 5 6 7 10 11 12 13 15 16 
 17 18 19 20 22 23 24 26 27 28 29 30 
 31 32 34 36 38 39 40 41 42 43 44 45 
 46 47 49 50 51 53 55 56 57 58 59 60 
 61 62 64 65 70 71 72 74 75 76 77 78 
 79 80 81 82 84 85 86 88 89 90 91 92 
 93 95 97 
 19 
 1 13 14 18 22 34 35 40 45 47 57 58 
 63 67 68 77 83 97 100 
 98 
 1 2 3 4 5 6 7 8 9 10 11 12 
 13 14 15 16 17 18 19 20 21 22 23 24 
 25 26 27 28 29 30 31 32 33 34 35 36 
 37 38 39 40 41 42 43 44 45 46 47 48 
 49 50 52 53 54 55 56 57 58 60 61 62 
 63 64 65 66 67 68 69 70 71 72 73 74 
 75 76 77 78 79 80 81 82 83 84 85 86 
 87 88 89 90 91 92 93 94 95 96 97 98 
 99 100 
 82 
 1 2 3 5 6 7 8 10 11 12 13 14 
 15 17 18 20 21 23 25 26 28 30 31 32 
 33 34 35 36 37 38 39 42 43 44 45 48 
 49 50 51 52 53 54 55 56 57 58 59 60 
 61 62 63 64 65 66 67 70 72 74 75 76 
 77 79 80 81 82 83 84 85 86 87 88 89 
 90 91 93 94 95 96 97 98 99 100 
 61 
 1 3 4 5 6 8 13 16 17 20 21 22 
 23 26 27 29 31 32 33 35 36 37 38 39 
 41 43 44 45 46 50 51 53 54 55 56 57 
 58 60 62 63 65 66 67 68 69 72 73 76 
 77 79 86 87 88 90 91 93 95 96 97 98 
 100 
 60 
 1 2 3 5 6 7 8 10 11 13 14 15 
 17 18 20 21 23 24 25 29 30 32 33 34 
 35 37 38 41 45 46 47 48 50 52 53 54 
 55 56 58 60 61 62 63 67 68 70 71 73 
 76 77 79 80 85 86 87 89 90 95 96 98 
 53 
 2 4 8 10 11 15 16 20 23 25 26 27 
 28 29 30 32 34 36 38 39 41 42 43 44 
 48 49 53 54 55 61 63 65 66 68 69 70 
 71 72 73 75 77 78 79 80 81 82 84 85 
 87 94 95 96 100 
 55 
 5 6 8 10 11 12 15 17 18 22 23 24 
 26 27 28 29 30 32 33 34 35 38 40 42 
 44 49 50 51 52 55 56 57 58 59 61 64 
 66 67 69 70 72 73 75 76 79 81 82 83 
 86 88 89 94 97 99 100 
 37 
 4 7 8 11 14 17 18 19 23 26 35 37 
 38 42 43 49 50 51 53 55 56 57 64 69 
 70 73 74 75 77 79 80 81 84 89 95 99 
 100 
 66 
 1 3 4 6 7 8 9 13 14 16 17 18 
 20 21 22 23 24 25 26 27 28 29 34 35 
 37 38 39 40 41 42 44 45 46 47 52 54 
 55 58 59 60 63 66 67 68 69 70 71 74 
 75 77 78 79 80 81 82 83 86 89 90 92 
 93 96 97 98 99 100 
 72 
 1 3 4 5 6 8 9 10 11 12 13 15 
 16 17 18 19 20 21 22 23 25 30 31 33 
 35 38 39 40 42 43 44 45 47 48 49 50 
 53 55 56 57 59 60 62 64 66 67 68 69 
 70 71 72 73 74 77 78 79 80 81 82 83 
 84 85 87 88 89 90 92 94 95 96 97 98 
 5 
 7 30 40 57 92 
 54 
 1 2 3 4 5 7 10 14 15 17 19 21 
 22 27 30 31 33 34 35 38 39 40 42 43 
 46 48 49 53 55 56 59 60 61 62 64 65 
 66 69 70 71 72 74 75 76 78 79 83 86 
 89 90 91 93 97 100 
 38 
 1 2 5 9 10 11 12 15 20 21 23 29 
 30 31 33 40 49 52 53 54 56 57 61 62 
 67 69 72 73 75 76 81 85 90 93 96 97 
 98 99 
 74 
 1 3 6 7 10 12 14 15 16 17 18 19 
 20 21 22 24 26 27 29 30 33 34 35 36 
 37 38 40 42 43 45 46 47 51 52 53 54 
 56 57 58 59 60 64 65 66 67 68 70 71 
 72 73 75 76 77 78 79 80 81 82 83 84 
 85 86 87 88 89 90 91 92 93 94 96 98 
 99 100 
 91 
 3 4 5 6 7 8 9 12 13 15 16 17 
 18 20 21 22 23 24 25 27 28 29 30 31 
 32 33 34 35 36 37 38 39 40 41 42 43 
 44 45 46 47 48 49 50 51 52 53 54 55 
 56 57 59 60 61 62 63 64 65 66 67 68 
 69 70 71 72 73 74 75 76 77 78 79 80 
 81 82 83 84 85 86 87 88 89 90 91 92 
 93 94 95 96 98 99 100 
 50 
 1 2 5 8 14 17 21 22 24 25 27 28 
 29 30 31 34 35 36 37 38 41 43 44 46 
 48 49 50 51 54 55 60 61 62 65 68 70 
 71 75 77 78 79 81 83 90 93 94 95 97 
 98 99 
 91 
 1 2 3 4 5 6 7 8 9 10 11 12 
 13 14 15 16 18 19 20 21 22 23 24 25 
 26 27 28 29 30 31 32 33 34 35 36 38 
 39 40 41 44 45 46 47 48 49 50 51 53 
 54 55 56 57 58 60 61 62 65 66 67 69 
 70 71 72 73 74 75 76 77 78 79 80 81 
 82 83 84 85 86 87 88 89 90 91 92 93 
 94 95 96 97 98 99 100 
 53 
 1 3 10 13 19 21 22 23 24 28 30 31 
 33 34 35 36 40 41 42 43 44 47 48 49 
 50 51 52 55 56 58 59 60 61 63 64 65 
 67 68 69 70 74 75 77 79 80 81 85 86 
 87 88 89 90 97 
 6 
 3 6 48 67 69 87 
 50 
 3 5 7 9 10 11 12 15 16 17 18 22 
 24 26 27 30 32 38 41 43 44 45 46 48 
 49 50 51 56 57 58 60 61 62 63 64 65 
 67 68 70 72 73 74 79 80 82 87 89 92 
 94 100 
 36 
 3 6 17 20 23 24 25 26 28 30 33 38 
 39 44 47 48 50 55 60 67 69 71 73 77 
 78 79 80 82 86 88 92 94 95 96 97 100 
 84 
 2 3 4 6 7 8 9 11 13 15 16 17 
 18 19 20 21 22 23 24 25 26 27 28 30 
 31 33 34 35 36 37 38 39 40 41 43 44 
 45 46 47 48 49 50 51 53 54 55 56 57 
 58 59 60 62 63 64 65 66 67 68 69 70 
 71 72 74 75 76 77 78 80 81 82 83 84 
 85 86 87 89 91 92 94 95 96 97 99 100 
 64 
 3 4 5 6 9 11 12 13 14 15 16 17 
 18 19 20 25 26 27 30 31 32 33 34 39 
 40 42 43 44 45 47 51 53 54 55 56 58 
 60 62 63 64 67 69 70 71 72 73 74 75 
 76 77 78 79 80 81 83 84 89 90 91 93 
 94 97 98 99 
 76 
 1 4 5 6 7 9 10 11 12 13 14 15 
 16 17 18 19 20 21 22 23 24 25 26 28 
 29 30 31 32 36 37 38 40 41 42 43 45 
 48 49 51 52 53 55 56 58 59 60 61 62 
 63 64 65 66 67 68 69 70 71 72 73 74 
 75 77 79 81 82 83 84 85 87 88 89 90 
 91 92 99 100 
 49 
 1 4 8 9 15 20 21 22 24 25 26 28 
 29 30 31 36 37 38 39 40 41 43 45 46 
 52 55 59 62 65 66 67 68 69 71 72 74 
 76 77 80 83 84 88 90 92 96 97 98 99 
 100 
 33 
 1 2 8 12 13 19 20 22 26 27 30 34 
 36 40 45 46 48 52 53 55 59 61 62 65 
 71 77 80 81 84 85 86 89 91 
 40 
 2 5 10 12 13 14 19 22 24 25 26 29 
 30 31 34 35 39 41 44 48 50 51 54 59 
 62 66 69 71 72 73 76 78 79 81 82 83 
 88 94 95 99 
 51 
 1 2 3 4 5 6 8 11 15 17 18 19 
 20 21 25 26 27 28 33 34 36 37 38 40 
 42 43 47 49 50 53 56 59 61 62 64 67 
 68 72 75 76 77 78 82 83 85 87 88 90 
 91 96 97 
 66 
 1 2 3 5 6 7 9 10 11 12 16 17 
 19 20 21 22 23 25 28 29 30 31 32 33 
 34 35 37 38 40 42 43 45 49 50 53 54 
 57 58 59 61 63 64 65 66 67 69 70 71 
 72 73 74 75 76 77 81 82 83 86 87 88 
 90 91 92 95 98 100 
 24 
 1 4 12 16 19 22 24 27 28 30 32 33 
 39 47 48 53 63 70 75 76 79 84 85 98 
 99 
 1 2 3 4 5 6 7 8 9 10 11 12 
 13 14 15 16 17 18 19 20 21 22 23 24 
 25 26 27 28 29 30 31 32 33 34 35 36 
 37 39 40 41 42 43 44 45 46 47 48 49 
 50 51 52 53 54 55 56 57 58 59 60 61 
 62 63 64 65 66 67 68 69 70 71 72 73 
 74 75 76 77 78 79 80 81 82 83 84 85 
 86 87 88 89 90 91 92 93 94 95 96 97 
 98 99 100 
 10 
 18 21 29 33 38 46 55 80 89 92 
 81 
 1 2 3 4 5 7 8 9 10 11 12 13 
 14 15 16 17 18 20 23 24 25 26 27 28 
 29 31 32 33 35 36 37 38 39 40 41 43 
 44 45 46 47 48 50 51 52 55 56 57 58 
 60 61 62 64 65 66 67 68 69 70 71 72 
 73 75 76 77 78 79 80 82 83 84 85 86 
 87 88 89 90 91 92 93 96 97 
 47 
 1 3 6 7 8 9 12 15 16 17 18 29 
 30 31 32 34 35 37 40 43 44 45 47 49 
 51 52 55 56 58 60 62 63 65 66 70 72 
 73 75 79 81 83 86 91 93 95 97 99 
 32 
 4 5 17 20 27 35 36 37 40 41 42 51 
 52 54 56 58 66 67 74 76 78 80 81 86 
 87 90 91 92 93 94 98 100 
 56 
 1 2 3 4 5 6 7 8 11 12 15 17 
 21 22 23 24 25 30 31 33 34 35 36 39 
 41 42 43 44 45 50 51 53 54 55 56 57 
 59 60 64 65 66 70 74 75 77 78 83 84 
 85 87 89 90 92 93 95 96 
 68 
 1 2 3 7 9 11 12 13 14 15 16 17 
 19 21 22 23 24 25 26 27 28 29 30 32 
 34 35 37 38 40 41 44 45 46 47 49 50 
 51 52 53 54 56 59 60 62 63 64 65 66 
 67 68 69 71 72 73 74 75 76 77 78 80 
 82 84 85 86 88 89 94 98 
 19 
 4 5 6 11 12 16 17 20 24 33 39 44 
 48 53 54 61 62 67 93 
 91 
 1 2 3 4 5 6 7 8 9 10 11 12 
 13 14 15 16 17 18 19 20 21 23 26 27 
 28 29 30 31 32 33 34 35 36 37 38 40 
 41 42 44 45 46 47 48 49 50 51 52 53 
 54 55 56 57 58 59 60 61 63 64 65 67 
 68 69 70 71 72 73 74 75 76 77 79 80 
 81 82 83 84 85 86 87 88 89 90 91 92 
 94 95 96 97 98 99 100 
 22 
 3 4 6 11 15 18 19 21 28 33 34 41 
 52 56 58 62 68 80 83 88 89 93 
 7 
 6 17 53 62 69 81 90 
 85 
 2 3 4 5 6 7 8 10 11 12 13 15 
 16 17 19 20 21 22 23 24 25 26 27 28 
 30 31 32 33 34 35 36 37 38 39 40 41 
 42 44 45 46 47 49 50 51 52 53 54 55 
 56 57 58 59 60 61 63 64 65 67 68 69 
 70 71 72 74 75 76 77 78 79 80 81 82 
 83 85 86 87 89 90 91 94 95 96 97 98 
 100 
 41 
 1 4 7 8 9 10 11 15 17 19 21 23 
 28 30 31 35 38 39 40 41 44 47 54 55 
 56 57 61 64 66 68 69 70 75 76 82 84 
 93 94 96 97 100 
 83 
 1 3 4 6 7 8 9 10 11 12 13 14 
 15 16 17 18 19 22 23 24 25 26 27 28 
 29 30 31 32 33 34 35 36 37 38 39 40 
 41 42 45 46 47 49 51 52 53 54 55 56 
 57 58 59 60 61 63 64 66 67 69 70 71 
 73 75 76 77 78 80 81 82 83 84 85 86 
 87 88 89 90 91 92 93 95 97 98 100 
 94 
 1 2 3 5 6 7 8 9 10 11 12 13 
 14 15 16 17 18 20 21 22 23 24 25 26 
 27 28 29 30 32 33 34 35 36 37 38 39 
 40 43 44 45 46 47 48 49 50 51 52 53 
 54 55 56 57 58 59 60 61 62 63 64 65 
 66 67 68 69 70 71 72 73 74 75 76 77 
 78 79 80 81 82 83 84 85 86 88 89 90 
 91 92 93 94 95 96 97 98 99 100 
 17 
 2 7 24 33 46 47 53 62 64 65 79 80 
 82 84 86 92 100 
 6 
 12 15 28 37 74 91 
 29 
 3 13 14 19 33 36 37 38 44 45 47 48 
 49 50 52 53 54 59 61 63 64 66 73 78 
 86 91 92 94 97 
 17 
 22 23 25 36 37 38 41 42 43 44 45 54 
 66 67 73 93 95 
 93 
 1 2 4 5 6 7 8 10 11 12 13 14 
 15 16 17 18 19 20 21 22 23 24 25 26 
 27 29 30 32 33 34 35 36 37 38 39 40 
 41 42 43 44 45 46 47 48 49 50 51 52 
 53 55 56 57 58 59 60 61 62 63 64 65 
 67 68 69 70 71 72 73 74 75 76 77 78 
 80 81 82 83 84 85 86 87 88 89 90 91 
 92 93 94 95 96 97 98 99 100 
 72 
 3 4 5 6 7 9 10 11 12 13 15 18 
 19 22 23 24 25 26 27 29 30 31 34 35 
 36 37 41 42 43 45 46 47 48 49 50 51 
 52 53 54 56 57 59 61 62 63 64 65 66 
 67 68 69 70 71 73 74 76 81 82 83 84 
 85 88 89 90 92 94 95 96 97 98 99 100 
 6 
 40 49 56 65 75 87 
 41 
 9 10 16 19 26 29 30 33 36 37 40 41 
 42 43 49 50 54 55 56 57 58 60 62 63 
 67 71 73 74 75 76 77 79 80 81 83 86 
 87 89 92 96 100 
 65 
 1 2 3 4 7 8 10 11 14 15 16 17 
 18 19 20 22 23 24 26 29 30 31 32 33 
 37 38 40 41 44 45 46 49 51 52 53 54 
 55 56 58 62 64 66 69 70 71 74 75 77 
 79 80 81 82 86 87 88 89 90 91 92 93 
 94 96 97 98 100 
 69 
 2 3 5 6 7 12 13 14 15 18 19 20 
 21 23 24 25 26 28 29 30 31 32 33 34 
 37 38 39 40 41 42 43 45 46 48 50 51 
 53 54 55 56 57 58 60 61 62 63 64 65 
 66 67 68 69 72 74 76 79 80 83 84 85 
 86 89 91 92 93 94 95 96 97 
 41 
 2 4 10 12 14 15 17 20 21 25 26 28 
 30 37 38 39 41 42 43 45 55 57 63 64 
 65 68 69 70 72 74 75 76 77 81 82 85 
 90 92 94 98 99 
 76 
 1 3 5 7 8 9 11 12 15 16 17 18 
 19 20 22 23 24 25 27 28 29 30 32 33 
 34 35 36 37 38 39 40 43 45 46 47 48 
 49 50 51 52 53 55 56 57 58 59 60 61 
 65 66 67 68 70 71 72 73 74 75 76 77 
 80 81 82 83 84 85 86 87 89 91 92 94 
 95 96 98 99 
 38 
 1 3 6 7 8 10 11 12 21 25 26 27 
 31 34 35 36 43 44 46 52 53 54 58 60 
 61 64 65 72 73 74 75 76 79 81 82 85 
 88 100 
 34 
 3 4 7 11 12 13 14 17 19 20 22 26 
 27 30 32 33 42 43 47 50 52 56 61 62 
 67 69 72 79 81 83 84 86 88 97 
 24 
 9 10 13 20 21 34 40 43 45 49 51 54 
 55 59 60 61 64 66 68 82 83 84 96 100 
 57 
 2 4 6 7 8 9 11 12 15 17 20 22 
 24 26 31 32 33 35 37 38 40 41 44 45 
 47 50 51 53 54 55 56 62 63 64 65 66 
 68 71 72 74 75 76 78 80 81 84 85 87 
 88 89 90 92 93 94 95 96 99 
 89 
 1 2 3 4 5 6 8 10 11 12 13 14 
 15 17 18 19 20 21 22 23 24 25 26 27 
 28 30 31 32 33 34 36 37 38 39 40 41 
 43 44 45 46 48 50 51 52 53 54 55 56 
 57 58 59 60 61 62 63 64 65 66 67 68 
 69 70 71 72 73 74 75 76 77 79 80 81 
 83 84 85 86 87 88 89 90 91 92 93 95 
 96 97 98 99 100 
 11 
 7 8 24 31 35 37 47 60 80 87 89 
 97 
 1 2 3 4 5 6 7 8 9 10 11 12 
 13 14 15 17 18 19 20 21 22 23 24 25 
 26 27 28 29 31 32 33 34 35 36 37 38 
 39 40 41 42 43 44 45 46 47 48 49 50 
 51 52 54 55 56 57 58 59 60 61 62 63 
 64 65 66 67 68 69 70 71 72 73 74 75 
 76 77 78 79 80 81 82 83 84 85 86 87 
 88 89 90 91 92 93 94 95 96 97 98 99 
 100 
 55 
 4 5 6 7 8 9 10 11 13 14 15 16 
 18 20 23 26 28 31 32 35 38 40 41 42 
 44 45 47 49 50 52 55 56 58 60 62 63 
 66 68 71 72 76 79 80 81 83 84 85 86 
 87 88 89 93 94 95 98 
 25 
 3 5 7 10 13 19 26 39 44 47 53 54 
 57 59 61 67 73 74 76 83 87 88 91 95 
 100 
 34 
 1 2 4 7 8 10 14 17 18 19 20 28 
 29 30 31 39 45 54 55 56 57 60 61 64 
 66 68 76 79 82 89 90 94 96 100 
 46 
 4 6 7 10 14 16 21 22 23 24 26 27 
 28 30 33 34 38 42 45 47 48 51 53 55 
 58 60 62 69 70 73 75 78 80 81 82 83 
 84 86 87 88 89 92 94 95 97 98 
 20 
 1 3 6 17 23 27 35 41 43 60 61 64 
 75 81 83 86 88 91 93 98 
 11 
 5 13 15 24 40 44 46 66 69 73 91 
 48 
 1 2 4 5 6 7 13 14 16 19 21 22 
 24 25 26 27 33 37 38 39 40 43 44 45 
 46 47 51 52 55 57 61 63 64 65 68 69 
 76 77 78 79 80 84 85 90 91 95 97 98 
 12 
 16 22 26 28 53 54 55 58 79 83 88 93 
 36 
 2 4 7 18 19 21 26 28 29 31 32 33 
 34 40 47 50 51 57 59 61 64 65 66 67 
 70 72 73 79 82 84 89 92 94 95 97 98 
 45 
 2 4 7 8 12 14 16 17 22 23 26 29 
 31 32 33 35 38 39 40 42 44 45 46 48 
 50 53 57 60 63 64 66 70 71 73 74 75 
 79 85 86 88 92 93 95 98 99 
 8 
 14 20 25 40 52 63 67 96 
 26 
 3 8 19 20 21 24 29 30 33 34 41 55 
 57 64 69 70 72 73 75 77 80 85 95 97 
 99 100 
 59 
 2 3 4 6 7 8 10 12 13 14 15 16 
 18 19 21 24 25 26 27 28 29 30 32 33 
 34 35 37 39 41 43 44 46 49 50 55 56 
 57 60 66 68 69 70 71 72 74 76 77 78 
 79 83 84 86 87 88 89 91 92 94 99 
 39 
 1 4 5 6 8 9 11 13 17 20 21 27 
 34 35 36 38 39 43 44 45 48 49 59 60 
 62 63 64 72 74 78 79 81 83 88 89 93 
 94 97 100 
 67 
 2 4 5 11 12 13 14 15 16 17 18 22 
 25 26 30 31 32 33 34 35 36 40 41 44 
 45 46 49 50 51 55 56 58 59 60 62 63 
 64 65 66 67 68 69 70 71 72 73 74 75 
 76 77 79 80 81 82 84 85 86 87 88 89 
 90 91 92 94 95 97 98 
 33 
 9 10 11 13 17 19 23 25 28 29 31 32 
 33 35 38 40 45 47 49 51 56 57 62 65 
 72 77 87 89 91 93 94 95 100 
 75 
 3 4 5 7 8 9 11 12 14 15 16 17 
 18 19 22 25 26 29 31 32 33 34 36 37 
 38 39 41 43 44 46 47 48 49 50 51 52 
 53 54 55 56 58 59 60 61 62 63 64 65 
 66 67 68 69 70 71 72 74 75 76 78 79 
 80 82 83 84 85 87 88 90 91 94 95 96 
 97 98 100 
 29 
 1 4 7 12 14 15 17 18 20 29 33 35 
 37 38 41 46 49 51 58 63 67 77 84 86 
 88 92 94 95 97 
 9 
 4 33 37 48 65 66 68 78 88 
 72 
 1 2 3 4 5 6 7 8 10 11 12 13 
 14 16 17 19 22 23 24 27 28 29 30 31 
 32 33 34 35 36 37 40 42 43 46 47 49 
 51 53 55 57 58 60 61 62 63 64 65 66 
 67 68 70 72 74 75 77 78 79 80 82 84 
 85 86 87 88 90 91 93 95 97 98 99 100 
 89 
 1 2 3 4 5 6 7 8 9 10 11 13 
 14 15 16 18 19 20 21 22 23 24 26 27 
 28 29 30 31 33 35 36 37 38 39 40 41 
 42 43 44 45 47 48 49 51 52 53 54 55 
 56 57 58 59 60 61 62 63 65 68 69 70 
 71 72 73 74 75 76 77 78 79 80 81 82 
 83 84 85 86 87 88 89 90 91 92 93 94 
 95 96 98 99 100 
 51 
 1 2 6 8 11 12 14 16 17 19 24 26 
 27 28 29 30 31 33 35 37 38 43 44 45 
 46 49 50 51 55 57 59 60 62 63 64 71 
 73 74 77 78 79 81 82 85 86 87 91 95 
 96 97 100 
 54 
 3 5 8 9 10 11 12 13 14 17 19 20 
 21 22 23 24 26 31 35 38 40 43 47 50 
 52 55 56 57 59 62 63 64 66 67 69 70 
 73 74 75 76 77 78 79 80 82 87 88 89 
 90 91 92 93 96 100 
 26 
 4 6 12 13 16 24 30 33 35 42 47 50 
 53 55 59 63 68 70 71 74 75 77 83 84 
 90 93 
 89 
 1 2 4 6 7 8 9 10 11 12 13 14 
 15 16 17 18 21 22 23 24 25 26 27 28 
 29 30 32 33 34 35 36 37 38 39 40 41 
 42 45 47 48 49 50 51 52 53 54 55 56 
 57 58 59 60 61 62 63 64 65 66 67 68 
 69 70 71 72 74 75 76 77 78 79 80 81 
 82 83 84 85 86 87 88 89 90 91 92 94 
 95 96 98 99 100 
 47 
 1 2 3 4 5 7 8 9 10 17 20 21 
 22 25 26 29 30 31 32 35 36 38 40 41 
 44 47 50 51 54 58 62 64 65 67 72 73 
 75 82 84 87 88 89 93 96 97 98 99 
 60 
 2 5 6 8 10 12 13 15 21 28 29 32 
 33 37 39 40 41 42 43 44 46 50 51 52 
 53 57 59 61 62 63 64 65 67 70 71 72 
 73 75 76 77 78 80 81 82 83 84 86 87 
 88 89 90 91 93 94 95 96 97 98 99 100 
 38 
 3 4 6 9 10 13 20 23 26 27 30 31 
 34 37 38 39 42 44 46 47 48 53 55 58 
 59 60 64 65 66 69 70 77 82 85 87 88 
 97 99 
 85 
 1 2 3 4 5 6 7 8 9 11 13 14 
 15 16 17 18 19 20 24 25 26 27 29 30 
 31 32 34 35 36 37 38 39 40 42 43 44 
 45 46 47 48 49 50 51 52 53 54 55 56 
 58 59 60 61 62 64 65 66 68 71 72 73 
 74 75 76 77 78 79 80 81 82 83 84 85 
 86 87 88 89 90 91 92 94 95 96 97 98 
 99 
 29 
 1 3 6 11 15 21 31 37 40 42 43 45 
 47 55 56 57 62 64 65 73 74 77 80 86 
 87 88 94 96 100 
 51 
 1 2 3 7 8 9 10 11 12 15 18 19 
 22 25 27 28 30 31 33 34 36 40 41 42 
 47 48 49 52 53 54 56 57 58 61 65 68 
 69 70 72 74 79 80 81 82 83 84 88 89 
 98 99 100 
 70 
 1 2 3 4 6 8 10 11 12 13 14 15 
 16 18 19 21 22 23 24 26 27 29 31 32 
 33 35 36 37 38 39 40 42 44 45 46 47 
 48 49 51 52 58 60 61 62 65 67 69 70 
 71 72 73 74 75 76 77 78 79 80 81 83 
 84 85 86 87 90 91 93 94 98 99 
 24 
 12 17 19 28 43 45 52 54 55 56 57 59 
 64 67 69 70 79 80 84 88 90 93 99 100 
 6 
 1 16 17 32 38 56 
 91 
 1 2 3 4 5 7 8 9 10 11 12 13 
 14 15 16 17 18 19 20 21 23 24 25 26 
 27 28 29 30 31 32 33 34 35 36 37 38 
 39 40 41 42 43 44 45 46 47 48 49 50 
 52 53 54 55 56 58 59 60 62 63 64 65 
 66 67 68 69 71 72 73 76 77 78 79 80 
 81 82 83 84 85 86 88 89 90 91 92 93 
 94 95 96 97 98 99 100 
 6 
 4 16 63 65 91 97 
 60 
 1 2 3 4 5 7 8 10 11 12 14 15 
 16 18 20 24 25 26 27 30 33 34 40 42 
 43 44 45 47 50 51 52 54 56 57 58 62 
 63 64 65 68 69 71 75 77 78 79 82 84 
 85 87 88 89 90 91 92 93 94 95 96 100 
 24 
 4 10 18 21 24 25 26 28 39 40 43 46 
 50 53 55 60 67 81 84 85 87 88 89 96 
 27 
 1 4 5 10 18 19 23 30 31 33 35 38 
 40 44 48 53 56 58 59 69 74 89 90 92 
 98 99 100 
 46 
 1 3 4 7 8 11 14 15 16 19 24 27 
 29 34 36 40 42 44 46 47 49 54 55 56 
 58 59 61 62 64 65 66 68 71 74 75 78 
 80 85 90 91 94 95 96 97 99 100 
 43 
 2 4 6 8 9 11 14 19 23 26 29 32 
 33 36 37 41 42 43 44 45 50 51 53 54 
 58 63 65 66 69 70 71 73 74 75 77 79 
 84 86 88 91 92 98 99 
 78 
 1 2 3 4 5 6 7 8 9 10 11 12 
 13 14 16 18 19 20 21 22 23 24 25 26 
 28 29 31 32 36 37 39 40 42 43 45 46 
 48 49 50 52 55 58 59 60 61 62 63 64 
 65 66 67 68 69 70 71 72 73 74 75 76 
 77 78 81 82 84 85 86 87 89 90 91 92 
 93 94 95 97 99 100 
 46 
 1 3 4 5 7 9 11 13 16 17 18 19 
 21 26 30 32 36 38 40 43 44 46 47 50 
 52 54 55 56 57 58 60 61 65 67 72 79 
 80 83 84 85 87 92 93 94 96 98 
 13 
 6 18 24 32 33 39 42 58 64 69 81 86 
 93 
 63 
 2 3 6 8 10 14 15 16 17 18 19 20 
 21 23 25 29 30 32 38 39 40 41 42 43 
 44 45 46 47 48 51 53 54 57 58 61 62 
 64 66 67 68 69 71 72 73 75 76 78 79 
 80 81 82 84 86 87 88 89 90 91 92 93 
 94 98 100 
 54 
 1 2 3 5 8 11 15 16 19 20 21 22 
 23 24 27 28 29 30 35 39 40 41 42 43 
 44 45 47 48 49 52 53 55 56 61 62 65 
 67 71 73 75 76 77 78 79 82 86 88 89 
 91 93 94 96 97 98 
 22 
 9 12 13 17 18 35 39 42 44 45 49 61 
 62 63 75 77 78 81 85 86 88 93 
 62 
 3 4 6 8 9 11 12 13 14 15 16 17 
 19 22 26 27 28 29 30 31 33 35 36 37 
 38 39 41 42 43 44 46 48 49 51 53 55 
 57 58 60 61 62 64 65 66 67 68 70 72 
 78 79 80 83 84 85 87 88 89 91 92 95 
 98 100 
 68 
 1 2 3 4 7 9 11 13 15 16 17 18 
 19 20 22 23 24 26 27 30 32 33 34 35 
 36 39 40 42 43 44 45 46 47 48 50 52 
 53 55 56 57 59 60 61 62 63 66 67 68 
 73 75 77 78 79 82 83 84 85 86 87 88 
 89 90 91 92 95 96 98 100 
 69 
 2 4 5 6 7 8 9 10 11 13 14 15 
 17 19 20 21 22 23 24 28 30 31 32 35 
 36 37 38 39 42 43 44 47 48 49 50 51 
 53 54 55 56 57 63 64 65 66 67 68 69 
 70 71 73 74 75 76 77 78 79 81 82 84 
 85 86 87 89 92 93 95 96 98 
 36 
 2 6 7 12 13 15 16 17 22 23 24 25 
 32 35 41 46 47 48 49 50 57 58 59 64 
 66 67 69 73 74 75 77 80 81 85 87 93 
 83 
 3 4 5 7 8 9 10 11 13 14 15 16 
 17 18 19 20 21 22 23 24 26 27 28 29 
 30 33 34 35 36 39 41 42 43 45 46 47 
 49 50 51 52 53 54 55 56 58 59 60 61 
 62 64 65 66 67 68 69 70 71 72 73 74 
 75 76 77 78 79 80 82 83 84 85 87 88 
 89 90 91 92 93 94 95 96 97 99 100 
 16 
 2 13 16 23 26 31 33 35 39 53 64 69 
 76 78 81 100 
 21 
 18 21 24 25 26 27 30 34 45 51 52 54 
 56 65 69 73 83 85 86 97 98 
 92 
 1 2 3 4 5 6 7 8 9 10 12 13 
 14 15 16 17 18 20 21 22 23 24 25 26 
 27 28 29 30 31 33 34 35 36 37 38 39 
 40 41 42 43 44 45 46 47 48 49 50 51 
 53 54 55 56 57 58 59 60 61 62 63 64 
 66 67 68 69 70 71 72 73 74 76 77 78 
 79 80 81 82 83 84 85 86 87 88 89 90 
 91 92 93 94 95 96 97 98 
 98 
 1 2 3 4 5 6 7 8 9 10 11 12 
 13 14 15 16 17 18 19 20 21 23 24 25 
 26 27 28 29 30 31 32 33 34 35 36 37 
 38 39 40 41 42 43 44 45 46 47 48 49 
 50 51 52 53 54 55 56 57 58 59 60 61 
 62 63 64 65 66 67 68 69 70 71 72 73 
 74 75 76 77 78 79 80 81 82 83 84 85 
 86 87 88 89 91 92 93 94 95 96 97 98 
 99 100 
 65 
 1 5 9 10 11 13 14 15 17 19 20 23 
 24 25 26 28 30 32 33 34 37 38 39 40 
 43 45 47 48 49 50 51 52 53 54 58 61 
 62 63 64 65 67 68 70 71 72 73 74 76 
 77 78 79 81 82 84 86 88 89 90 92 93 
 94 95 97 98 99 
 87 
 1 4 5 6 7 8 10 11 12 13 14 15 
 16 17 18 19 20 21 22 23 24 25 26 27 
 28 29 30 31 32 33 34 35 36 37 38 39 
 40 41 43 44 45 46 47 48 49 50 52 53 
 54 56 57 58 59 60 63 64 65 66 68 70 
 71 72 74 75 77 78 79 80 81 82 83 84 
 85 87 88 89 90 91 92 93 94 95 96 97 
 98 99 100 
 17 
 11 14 16 20 27 39 57 59 60 69 70 74 
 87 88 92 99 100 
 99 
 1 2 3 4 5 6 7 8 9 10 11 12 
 13 14 15 16 17 18 19 20 21 22 23 24 
 25 26 27 28 29 30 31 32 33 34 35 36 
 37 38 39 40 41 42 43 44 45 46 47 48 
 49 50 51 52 53 54 55 56 57 58 59 60 
 61 62 63 64 65 66 67 68 69 70 71 72 
 73 74 75 76 77 78 79 80 81 82 83 84 
 85 86 87 88 89 90 91 92 93 95 96 97 
 98 99 100 
 19 
 14 17 20 22 27 32 34 42 50 52 63 66 
 72 73 77 80 81 89 90 
 